p cnf 91 377
12 13 -31 57 58 -73 79 0
12 -14 -31 58 -73 -78 -79 0
3 4 19 -51 68 -91 0
-15 29 -30 -31 57 58 0
3 4 23 -51 -91 0
3 4 23 -68 -91 0
-3 -23 51 67 91 0
-4 52 -61 -78 -84 0
7 42 45 46 60 0
-8 42 46 -60 -87 0
10 20 21 -72 -77 0
10 20 -69 -72 -77 0
19 38 39 54 64 0
1 2 6 -62 0
1 8 70 -88 0
1 -32 56 -62 0
1 -60 70 88 0
-3 -19 51 85 0
-3 -51 67 91 0
-4 52 78 82 0
-6 -35 -65 82 0
7 8 9 40 0
7 8 9 64 0
7 9 45 46 0
8 9 -48 64 0
8 -45 -48 55 0
-8 -18 -39 -55 0
10 12 26 -28 0
11 -27 -31 34 0
-16 -50 -68 -89 0
17 19 40 41 0
-18 -19 -54 81 0
20 -38 41 53 0
21 70 -72 -77 0
-21 53 70 -88 0
-21 70 83 88 0
22 -41 -44 -72 0
22 -41 71 -72 0
23 32 -33 34 0
-23 25 65 80 0
24 -35 -56 -59 0
25 75 76 -80 0
26 -27 -28 -31 0
-38 70 71 -72 0
40 -43 45 -87 0
45 60 70 83 0
1 42 60 -83 0
-1 8 83 -88 0
3 23 40 51 0
-3 4 16 -68 0
-4 -61 -63 84 0
-6 37 62 82 0
7 8 40 55 0
-7 -8 -42 -60 0
9 40 45 -87 0
9 46 -47 64 0
12 26 -31 34 0
12 -28 57 78 0
13 -78 79 84 0
-19 -51 -85 -91 0
-31 58 78 79 0
-32 -35 56 -61 0
-35 -61 -74 82 0
-54 -55 71 -72 0
1 2 24 0
1 10 -88 0
-1 -3 8 0
-1 -3 -10 0
2 5 -62 0
2 -35 65 0
-2 -65 -82 0
3 19 59 0
3 24 59 0
-3 -16 91 0
4 78 84 0
5 78 -84 0
-5 -19 36 0
-5 74 82 0
-6 -19 -59 0
7 55 60 0
-7 -8 -45 0
-7 -42 83 0
-8 -10 -83 0
-8 53 71 0
-8 -83 87 0
10 -12 -57 0
10 -25 -27 0
-10 -12 57 0
-10 27 56 0
11 -19 -27 0
11 -26 57 0
11 -31 -76 0
-11 -14 -15 0
-11 76 80 0
12 -19 80 0
12 32 -61 0
13 67 85 0
-13 -49 -50 0
-13 -67 86 0
15 25 80 0
15 -29 30 0
16 50 -89 0
-16 -23 -89 0
17 23 38 0
17 44 77 0
-17 20 -72 0
-17 -23 -40 0
18 41 47 0
-18 -19 -38 0
-18 22 -69 0
-18 -23 -44 0
-18 -39 -40 0
-18 -47 -64 0
19 26 -34 0
19 -30 -74 0
19 -33 -36 0
19 39 42 0
19 69 81 0
19 -76 -80 0
-19 25 -34 0
-19 -27 -28 0
-19 -40 43 0
-19 -43 -48 0
-19 -50 -51 0
-19 79 -84 0
20 -70 88 0
-20 -22 -53 0
-20 -53 72 0
-20 69 70 0
21 -43 83 0
-21 53 -54 0
22 69 88 0
-22 -41 -53 0
23 -36 -65 0
23 39 60 0
23 74 -75 0
-23 -24 59 0
-23 -69 70 0
-23 -79 -84 0
24 -32 59 0
-24 35 -59 0
25 28 32 0
25 33 36 0
25 56 59 0
-25 -36 63 0
26 -27 34 0
-26 -28 31 0
27 57 73 0
29 30 73 0
29 -37 -73 0
-29 -30 -37 0
30 -73 78 0
32 -56 61 0
-33 -59 62 0
-35 -56 -59 0
36 37 63 0
38 41 70 0
39 41 48 0
-39 -40 -43 0
-41 -70 72 0
42 -48 -55 0
46 60 -87 0
-46 -48 -64 0
49 67 68 0
49 68 -86 0
-49 90 -91 0
50 66 67 0
-50 -66 89 0
51 67 68 0
51 -81 91 0
58 -76 80 0
66 67 90 0
66 86 -90 0
66 -86 -89 0
-66 -86 -89 0
-66 -86 90 0
74 -75 80 0
-85 90 -91 0
1 3 0
1 -32 0
1 -42 0
1 69 0
1 -74 0
1 -87 0
-1 -2 0
-1 8 0
-1 -29 0
-1 -34 0
-1 -59 0
2 32 0
2 -35 0
2 59 0
2 -65 0
-2 -6 0
-2 61 0
-2 -65 0
3 13 0
3 27 0
3 -50 0
3 -62 0
3 -67 0
-3 -4 0
-3 8 0
-3 -16 0
-3 35 0
-3 52 0
-3 67 0
-3 -86 0
4 -33 0
4 44 0
4 -47 0
4 -52 0
4 61 0
4 63 0
-4 61 0
-4 -63 0
-4 82 0
5 -52 0
5 63 0
5 -78 0
5 -82 0
-5 -63 0
-5 -65 0
-5 84 0
6 35 0
6 -36 0
6 -37 0
6 61 0
6 -82 0
-6 29 0
-6 52 0
-6 74 0
-6 75 0
7 64 0
-7 46 0
-7 87 0
8 -46 0
8 48 0
8 70 0
8 -70 0
8 83 0
-8 -9 0
-8 10 0
-8 45 0
-8 48 0
-8 -64 0
-8 88 0
9 47 0
9 -47 0
9 -48 0
-9 -40 0
-9 -45 0
-9 -46 0
10 12 0
10 21 0
10 22 0
10 25 0
10 26 0
10 -56 0
10 -70 0
10 81 0
10 90 0
-10 -11 0
-10 15 0
-10 -26 0
-10 28 0
-10 34 0
-10 66 0
11 14 0
11 15 0
11 -19 0
11 34 0
11 -73 0
11 -80 0
-11 13 0
-11 -57 0
-11 72 0
12 -19 0
12 34 0
-12 -13 0
-12 31 0
-12 73 0
-12 -78 0
-12 -79 0
13 -31 0
13 67 0
13 -73 0
13 -79 0
13 89 0
13 -89 0
13 91 0
-13 68 0
-13 -85 0
14 31 0
14 -57 0
14 -58 0
14 73 0
14 -78 0
14 -79 0
15 31 0
15 -57 0
15 -58 0
-15 -73 0
-15 76 0
16 18 0
16 51 0
-16 68 0
-16 91 0
17 18 0
17 -44 0
17 -77 0
-17 22 0
-17 -39 0
-17 44 0
-17 -77 0
18 21 0
18 64 0
18 69 0
-18 -23 0
-18 -55 0
-18 -64 0
-18 81 0
19 45 0
19 47 0
19 56 0
19 -67 0
19 -68 0
19 74 0
19 75 0
19 81 0
19 85 0
19 -91 0
-19 -24 0
-19 25 0
-19 -28 0
-19 30 0
-19 -32 0
-19 37 0
-19 -43 0
-19 -53 0
-19 54 0
-19 -68 0
-19 -69 0
-19 -78 0
-19 79 0
-19 -79 0
-19 80 0
-19 81 0
-19 86 0
-19 89 0
-19 91 0
-19 -91 0
20 21 0
20 -70 0
20 71 0
-20 -21 0
-20 77 0
21 39 0
21 -43 0
21 -54 0
21 70 0
-21 38 0
-21 -77 0
-21 83 0
22 53 0
22 -72 0
22 77 0
-22 70 0
-22 -70 0
-22 -71 0
-22 -88 0
23 27 0
23 -30 0
23 39 0
23 -42 0
23 -50 0
23 64 0
